50
18504

888 804
98 911
199 179
403 610
910 860
37 995
460 947
229 386
300 435
693 238
917 36
339 451
789 75
459 910
679 385
264 533
390 131
161 575
704 542
782 406
103 558
615 274
984 849
294 995
415 379
306 234
142 453
624 830
832 118
473 264
53 68
229 592
679 537
157 673
198 730
577 440
51 52
794 486
110 828
418 212
342 438
416 603
192 78
798 453
625 947
622 686
52 680
791 606
564 895
460 740
